files/upTests/_functions/setOfFunc2/0001.eprime
language ESSENCE' 1.0

find fs_Explicit_Explicit_Matrix1D:
        matrix indexed by [int(1..3), int(1..2), int(1..2)] of int(-1, 1)
such that
    forAll v__0 : int(1..3)
        . (forAll v__1 : int(1..2) . fs_Explicit_Explicit_Matrix1D[v__0, v__1, 1] = -1)
